p cnf 58 145
c t mc
6 12 0
8 -12 0
43 -45 0
-6 -14 0
8 -15 0
42 -46 0
42 -47 0
42 -48 0
45 -49 0
45 -50 0
44 -51 0
44 -52 0
-8 -16 0
-13 -16 0
11 -17 0
-8 -18 0
8 -19 0
-8 -20 0
-8 -21 0
4 -53 0
5 -53 0
1 -22 0
10 -22 0
3 -54 0
8 -23 0
3 -55 0
1 -56 0
45 -56 0
-22 -56 0
9 -57 0
2 -58 0
7 -58 0
-44 51 52 57 0
8 -11 17 24 25 0
-46 -47 -26 0
46 47 -57 0
-49 -50 57 58 0
-9 -42 46 57 0
-44 45 -27 0
-43 49 -52 55 56 0
-53 28 29 0
-8 53 30 -31 0
8 53 -32 33 0
-8 -17 34 35 36 0
-46 -47 52 -57 0
-43 50 -51 55 56 0
-44 -50 51 57 58 0
9 -42 54 26 0
48 50 -55 0
51 52 -58 0
-3 -45 -46 -48 49 54 0
-43 49 50 55 56 0
-9 47 -51 -52 0
-1 -10 43 0
-48 -52 -57 0
-42 47 54 26 0
8 46 -26 0
-43 49 -51 55 56 0
11 -24 -35 0
-30 31 32 -33 0
-47 49 -50 -55 0
-3 -45 -46 -47 49 54 0
-46 47 48 -54 0
8 51 -58 0
-53 -31 32 0
-8 -17 25 35 36 0
8 13 -37 0
15 48 -26 0
-44 -49 52 57 58 0
-8 -17 35 36 38 0
8 -11 17 35 36 39 0
-49 -50 51 -27 0
-2 -7 -51 58 0
-2 -7 -8 -52 58 0
47 -49 50 -54 0
-2 -7 -8 -51 0
-45 -46 -48 49 -55 0
47 -49 -50 -55 0
-8 -17 24 25 0
49 -51 -52 -27 0
8 -11 17 34 35 36 0
-8 -30 -31 -32 -33 0
8 -11 17 25 35 36 0
45 47 -55 0
-3 -42 46 54 55 0
-43 44 -27 0
-1 -50 22 56 0
-49 51 52 -27 0
-53 29 40 41 0
-1 10 -43 0
-8 -53 32 0
46 -49 -55 0
-42 46 54 26 0
-42 48 -51 54 26 0
8 31 -32 0
-1 -49 22 0
-48 -50 -54 0
8 -11 17 24 38 0
-8 53 -31 33 0
-12 50 -56 0
-1 -10 12 22 56 0
48 52 -57 0
-45 -46 -47 -48 -55 0
45 46 -55 0
-3 42 -43 0
-8 -17 35 36 39 0
-9 -46 51 52 0
-3 -42 43 0
-47 51 -52 -57 0
-4 -5 53 -28 31 32 -41 0
46 -47 -54 0
-51 -52 -58 0
-53 31 -32 0
-9 47 48 -52 57 0
-8 -46 -48 -26 0
-8 -17 24 34 0
-3 -46 47 -50 55 0
-4 -5 -29 31 32 0
-8 -17 24 39 0
-1 12 -50 22 0
-53 -30 -33 0
11 -25 -34 -38 -39 0
46 49 -54 0
8 -11 17 24 34 0
8 53 30 -32 0
-9 -46 -47 -48 51 0
8 -11 17 35 36 38 0
-8 -17 24 38 0
8 -53 29 -31 0
-4 -5 53 -28 31 32 -40 0
-9 47 -51 57 0
-46 48 -49 -54 0
-44 -49 51 57 58 0
-43 55 56 27 0
49 50 -51 -27 0
8 -11 17 24 39 0
-44 57 58 27 0
46 -51 -57 0
-3 -46 47 -49 55 0
-2 -7 44 0
11 -24 -36 0
-15 46 -26 0
-9 -42 44 0
-47 49 50 -54 0
-8 15 47 -26 0
